c "252035.clq"
p edge 100 384
e 1 5
e 1 6
e 1 7
e 1 8
e 1 9
e 1 13
e 1 14
e 1 15
e 1 21
e 1 22
e 1 25
e 1 47
e 1 52
e 1 67
e 1 74
e 1 79
e 1 81
e 2 5
e 2 6
e 3 5
e 3 6
e 3 7
e 3 8
e 3 16
e 3 23
e 3 24
e 3 31
e 3 41
e 3 46
e 3 55
e 3 57
e 3 62
e 3 80
e 3 84
e 3 87
e 3 91
e 4 5
e 4 12
e 4 16
e 4 18
e 4 20
e 4 34
e 4 66
e 5 6
e 5 7
e 5 9
e 5 10
e 5 11
e 5 14
e 5 16
e 5 19
e 5 21
e 5 22
e 5 30
e 5 31
e 5 32
e 5 35
e 5 41
e 5 43
e 5 45
e 5 49
e 5 65
e 5 76
e 5 79
e 5 85
e 5 86
e 5 87
e 6 7
e 6 8
e 6 9
e 6 10
e 6 11
e 6 12
e 6 13
e 6 14
e 6 15
e 6 23
e 6 24
e 6 25
e 6 27
e 6 32
e 6 36
e 6 37
e 6 44
e 6 45
e 6 48
e 6 50
e 6 55
e 6 56
e 6 59
e 6 64
e 6 76
e 6 79
e 6 82
e 6 84
e 6 88
e 6 89
e 6 96
e 7 8
e 7 9
e 7 10
e 7 11
e 7 15
e 7 17
e 7 20
e 7 25
e 7 29
e 7 33
e 7 37
e 7 40
e 7 50
e 7 60
e 7 61
e 7 70
e 7 71
e 7 80
e 7 81
e 7 89
e 8 10
e 8 12
e 8 14
e 8 15
e 8 22
e 8 27
e 8 32
e 8 33
e 8 41
e 8 46
e 8 48
e 8 61
e 8 62
e 8 63
e 8 81
e 8 90
e 8 100
e 9 11
e 9 12
e 9 18
e 9 19
e 9 20
e 9 23
e 9 24
e 9 25
e 9 27
e 9 28
e 9 36
e 9 42
e 9 45
e 9 46
e 9 49
e 9 54
e 9 56
e 9 72
e 9 78
e 9 79
e 9 81
e 9 82
e 9 85
e 9 91
e 9 94
e 9 97
e 10 13
e 10 17
e 10 77
e 10 80
e 11 16
e 11 22
e 11 30
e 11 31
e 11 38
e 11 56
e 11 72
e 11 74
e 11 99
e 11 100
e 12 13
e 12 17
e 12 19
e 12 27
e 12 29
e 12 34
e 12 35
e 12 42
e 12 47
e 12 48
e 12 51
e 12 53
e 12 56
e 12 61
e 12 82
e 12 85
e 13 18
e 13 20
e 13 24
e 13 28
e 13 29
e 13 41
e 13 47
e 13 49
e 13 62
e 13 65
e 13 66
e 13 68
e 13 86
e 13 92
e 13 94
e 13 96
e 14 21
e 14 30
e 14 32
e 14 38
e 14 39
e 14 66
e 14 98
e 15 26
e 15 39
e 15 63
e 15 64
e 15 83
e 16 17
e 16 33
e 16 37
e 17 18
e 17 19
e 17 35
e 17 50
e 17 54
e 17 58
e 17 69
e 17 96
e 17 97
e 18 21
e 18 28
e 18 33
e 18 43
e 18 58
e 18 59
e 19 26
e 19 35
e 19 51
e 19 70
e 20 30
e 20 47
e 20 59
e 20 73
e 20 78
e 21 23
e 21 26
e 21 28
e 21 36
e 21 39
e 21 40
e 21 44
e 21 50
e 21 52
e 21 58
e 21 60
e 21 64
e 21 72
e 21 73
e 21 78
e 21 87
e 21 88
e 21 95
e 21 100
e 22 39
e 22 42
e 22 52
e 22 54
e 22 65
e 23 29
e 23 62
e 24 26
e 24 37
e 24 58
e 24 68
e 24 69
e 24 73
e 24 74
e 24 93
e 24 94
e 25 31
e 25 40
e 25 49
e 25 83
e 27 57
e 27 77
e 27 83
e 27 93
e 28 43
e 28 48
e 28 66
e 28 77
e 28 84
e 28 92
e 29 36
e 29 59
e 29 65
e 29 71
e 29 84
e 29 86
e 29 90
e 29 99
e 31 34
e 31 43
e 31 44
e 31 51
e 31 53
e 31 70
e 31 76
e 31 99
e 32 34
e 32 45
e 32 51
e 32 68
e 32 83
e 33 54
e 33 57
e 33 74
e 34 40
e 34 52
e 35 38
e 35 46
e 35 85
e 37 38
e 37 67
e 37 90
e 38 67
e 39 42
e 39 53
e 39 98
e 40 64
e 40 75
e 40 93
e 42 44
e 42 60
e 42 68
e 42 88
e 43 55
e 44 53
e 45 61
e 45 70
e 47 55
e 47 88
e 47 100
e 50 57
e 51 71
e 51 86
e 52 69
e 52 78
e 52 80
e 52 82
e 54 71
e 55 95
e 56 63
e 56 95
e 57 72
e 59 60
e 59 89
e 59 92
e 59 98
e 60 67
e 60 69
e 62 63
e 62 75
e 63 91
e 65 75
e 66 73
e 66 75
e 66 76
e 66 90
e 70 96
e 71 77
e 73 98
e 74 87
e 74 89
e 81 94
e 83 97
e 85 95
e 87 92
e 88 91
e 91 93
e 91 97
e 94 99
